
Gurobi 10.0.1 (linux64) logging started Sun Nov 26 15:51:12 2023

Set parameter LogFile to value "ArtificialInstance/ExperimentV2/S4T4K1/BaRo/gurobi91.txt"
Gurobi Optimizer version 10.0.1 build v10.0.1rc0 (linux64)

CPU model: AMD EPYC 7H12 64-Core Processor, instruction set [SSE2|AVX|AVX2]
Thread count: 128 physical cores, 128 logical processors, using up to 32 threads

Academic license 656792 - for non-commercial use only - registered to b.___@student.vu.nl
Optimize a model with 1899 rows, 2801 columns and 9684 nonzeros
Model fingerprint: 0x04a87628
Variable types: 1 continuous, 2800 integer (2800 binary)
Coefficient statistics:
  Matrix range     [1e+00, 4e+01]
  Objective range  [1e+00, 2e+01]
  Bounds range     [1e+00, 1e+00]
  RHS range        [1e+00, 1e+00]
Found heuristic solution: objective 569.8507061
Presolve time: 0.01s
Presolved: 1899 rows, 2801 columns, 9684 nonzeros
Variable types: 1 continuous, 2800 integer (2800 binary)

Root relaxation: objective 4.529605e+01, 2425 iterations, 0.08 seconds (0.07 work units)

    Nodes    |    Current Node    |     Objective Bounds      |     Work
 Expl Unexpl |  Obj  Depth IntInf | Incumbent    BestBd   Gap | It/Node Time

     0     0   45.29605    0  304  569.85071   45.29605  92.1%     -    0s
H    0     0                     213.5385561   45.29605  78.8%     -    0s
H    0     0                      81.5597871   45.29605  44.5%     -    0s
     0     0   46.75147    0  381   81.55979   46.75147  42.7%     -    0s
     0     0   47.46489    0  543   81.55979   47.46489  41.8%     -    0s
H    0     0                      60.8581560   52.03366  14.5%     -    0s
H    0     0                      59.9794829   52.03366  13.2%     -    0s
     0     0   52.03366    0  478   59.97948   52.03366  13.2%     -    0s
     0     0   52.03366    0  478   59.97948   52.03366  13.2%     -    0s
H    0     0                      58.9250146   52.03366  11.7%     -    0s
H    0     0                      58.7574060   53.22804  9.41%     -    0s
     0     0   53.22804    0  542   58.75741   53.22804  9.41%     -    0s
H    0     0                      58.6590730   53.22804  9.26%     -    0s
     0     0   53.32343    0  565   58.65907   53.32343  9.10%     -    0s
     0     0   53.32343    0  565   58.65907   53.32343  9.10%     -    0s
     0     0   54.03837    0  547   58.65907   54.03837  7.88%     -    0s
     0     0   54.08857    0  561   58.65907   54.08857  7.79%     -    0s
     0     0   54.08857    0  564   58.65907   54.08857  7.79%     -    0s
H    0     0                      58.0440758   55.01646  5.22%     -    0s
     0     0   55.01646    0  627   58.04408   55.01646  5.22%     -    0s
     0     0   55.04132    0  623   58.04408   55.04132  5.17%     -    0s
     0     0   55.04132    0  625   58.04408   55.04132  5.17%     -    0s
     0     0   55.43654    0  632   58.04408   55.43654  4.49%     -    1s
     0     0   55.43654    0  295   58.04408   55.43654  4.49%     -    1s
     0     0   55.43654    0  468   58.04408   55.43654  4.49%     -    1s
     0     0   55.43654    0  428   58.04408   55.43654  4.49%     -    1s
H    0     0                      57.9457428   55.43654  4.33%     -    1s
     0     0   55.43654    0  417   57.94574   55.43654  4.33%     -    1s
     0     0   55.89168    0  412   57.94574   55.89168  3.54%     -    1s
     0     0   55.94784    0  417   57.94574   55.94784  3.45%     -    1s
     0     0   56.76816    0  439   57.94574   56.76816  2.03%     -    1s
     0     0   56.81423    0  417   57.94574   56.81423  1.95%     -    1s
     0     0   56.81612    0  412   57.94574   56.81612  1.95%     -    1s
     0     0   56.99627    0  414   57.94574   56.99627  1.64%     -    1s
     0     0   57.02797    0  452   57.94574   57.02797  1.58%     -    1s
     0     0   57.03011    0  443   57.94574   57.03011  1.58%     -    1s
     0     0   57.04207    0  435   57.94574   57.04207  1.56%     -    1s
     0     0   57.04207    0  439   57.94574   57.04207  1.56%     -    1s
     0     0   57.28450    0  446   57.94574   57.28450  1.14%     -    1s
     0     0   57.29629    0  434   57.94574   57.29629  1.12%     -    1s
     0     0   57.32933    0  375   57.94574   57.32933  1.06%     -    1s
     0     0   57.32953    0  369   57.94574   57.32953  1.06%     -    1s
     0     0   57.34534    0  420   57.94574   57.34534  1.04%     -    1s
     0     0   57.35124    0  445   57.94574   57.35124  1.03%     -    1s
     0     0   57.48512    0  173   57.94574   57.48512  0.79%     -    1s
     0     0   57.52840    0  371   57.94574   57.52840  0.72%     -    1s
     0     0   57.57546    0  342   57.94574   57.57546  0.64%     -    1s
     0     0   57.62614    0  324   57.94574   57.62614  0.55%     -    1s
     0     0   57.94574    0    5   57.94574   57.94574  0.00%     -    1s

Cutting planes:
  Gomory: 13
  Clique: 8
  Zero half: 59
  RLT: 47

Explored 1 nodes (17228 simplex iterations) in 1.96 seconds (1.18 work units)
Thread count was 32 (of 128 available processors)

Solution count 10: 57.9457 58.0441 58.6591 ... 569.851

Optimal solution found (tolerance 1.00e-04)
Best objective 5.794574280108e+01, best bound 5.794574215389e+01, gap 0.0000%
